NAME : bayg29.opt.tour
COMMENT : Optimum solution of bayg29
TYPE : TOUR
DIMENSION : 29
TOUR_SECTION
1
24
13
16
27
8
23
7
25
19
11
22
17
14
18
15
4
10
20
2
21
5
29
3
26
9
12
6
28
-1
EOF
